robust/generate/spp_dkp_Lefebvre_et_al_2026/src/shortest_path_5_9.kp
51
98

[4.14 0.27 2.1 3.94 1.74 5.81 0.97 2.38 3.61 2.99 1.07 1.34 3.96 1.53 2.51 0.29]

[6 63 43 43 45 77 26 13 27 46 96 10 16 62 98 76]
