robust/generate/spp_dkp_Lefebvre_et_al_2026/src/shortest_path_5_9.lp
\ Model sp_5_9
\ LP format - for model browsing. Use MPS format to capture full model detail.
\ Signature: 0x6daf66c4acd85796
Minimize
  35 y[0,2] + 50.45 y[0,3] + 19.92 y[0,4] + 40.02 y[1,2] + 12 y[1,3]
   + 35 y[2,0] + 40.02 y[2,1] + 39.12 y[2,3] + 45.19 y[2,4] + 50.45 y[3,0]
   + 12 y[3,1] + 39.12 y[3,2] + 42.94 y[3,4] + 19.92 y[4,0] + 45.19 y[4,2]
   + 42.94 y[4,3] + 3.5 r[0,2] + 5.045 r[0,3] + 1.992 r[0,4] + 4.002 r[1,2]
   + 1.2 r[1,3] + 3.5 r[2,0] + 4.002 r[2,1] + 3.912 r[2,3] + 4.519 r[2,4]
   + 5.045 r[3,0] + 1.2 r[3,1] + 3.912 r[3,2] + 4.294 r[3,4] + 1.992 r[4,0]
   + 4.519 r[4,2] + 4.294 r[4,3]
Subject To
 flow_cons_inner_nodes[2]: y[0,2] + y[1,2] - y[2,0] - y[2,1] - y[2,3]
   - y[2,4] + y[3,2] + y[4,2] = 0
 flow_cons_inner_nodes[3]: y[0,3] + y[1,3] + y[2,3] - y[3,0] - y[3,1]
   - y[3,2] - y[3,4] + y[4,3] = 0
 flow_cons_inner_nodes[4]: y[0,4] + y[2,4] + y[3,4] - y[4,0] - y[4,2]
   - y[4,3] = 0
 flow_cons_source: y[0,2] + y[0,3] + y[0,4] - y[2,0] - y[3,0] - y[4,0] = 1
 flow_cons_target: - y[1,2] - y[1,3] + y[2,1] + y[3,1] = 1
 primal_lower: - 4.14 y[0,2] - 0.27 y[0,3] - 2.1 y[0,4] - 3.94 y[1,2]
   - 1.74 y[1,3] - 5.81 y[2,0] - 0.97 y[2,1] - 2.38 y[2,3] - 3.61 y[2,4]
   - 2.99 y[3,0] - 1.07 y[3,1] - 1.34 y[3,2] - 3.96 y[3,4] - 1.53 y[4,0]
   - 2.51 y[4,2] - 0.29 y[4,3] + 6 u[0,2] + 63 u[0,3] + 43 u[0,4]
   + 43 u[1,2] + 45 u[1,3] + 77 u[2,0] + 26 u[2,1] + 13 u[2,3] + 27 u[2,4]
   + 46 u[3,0] + 96 u[3,1] + 10 u[3,2] + 16 u[3,4] + 62 u[4,0] + 98 u[4,2]
   + 76 u[4,3] <= 98
 mccormick1[0,2]: - u[0,2] + r[0,2] <= 0
 mccormick1[0,3]: - u[0,3] + r[0,3] <= 0
 mccormick1[0,4]: - u[0,4] + r[0,4] <= 0
 mccormick1[1,2]: - u[1,2] + r[1,2] <= 0
 mccormick1[1,3]: - u[1,3] + r[1,3] <= 0
 mccormick1[2,0]: - u[2,0] + r[2,0] <= 0
 mccormick1[2,1]: - u[2,1] + r[2,1] <= 0
 mccormick1[2,3]: - u[2,3] + r[2,3] <= 0
 mccormick1[2,4]: - u[2,4] + r[2,4] <= 0
 mccormick1[3,0]: - u[3,0] + r[3,0] <= 0
 mccormick1[3,1]: - u[3,1] + r[3,1] <= 0
 mccormick1[3,2]: - u[3,2] + r[3,2] <= 0
 mccormick1[3,4]: - u[3,4] + r[3,4] <= 0
 mccormick1[4,0]: - u[4,0] + r[4,0] <= 0
 mccormick1[4,2]: - u[4,2] + r[4,2] <= 0
 mccormick1[4,3]: - u[4,3] + r[4,3] <= 0
 mccormick2[0,2]: - y[0,2] + r[0,2] <= 0
 mccormick2[0,3]: - y[0,3] + r[0,3] <= 0
 mccormick2[0,4]: - y[0,4] + r[0,4] <= 0
 mccormick2[1,2]: - y[1,2] + r[1,2] <= 0
 mccormick2[1,3]: - y[1,3] + r[1,3] <= 0
 mccormick2[2,0]: - y[2,0] + r[2,0] <= 0
 mccormick2[2,1]: - y[2,1] + r[2,1] <= 0
 mccormick2[2,3]: - y[2,3] + r[2,3] <= 0
 mccormick2[2,4]: - y[2,4] + r[2,4] <= 0
 mccormick2[3,0]: - y[3,0] + r[3,0] <= 0
 mccormick2[3,1]: - y[3,1] + r[3,1] <= 0
 mccormick2[3,2]: - y[3,2] + r[3,2] <= 0
 mccormick2[3,4]: - y[3,4] + r[3,4] <= 0
 mccormick2[4,0]: - y[4,0] + r[4,0] <= 0
 mccormick2[4,2]: - y[4,2] + r[4,2] <= 0
 mccormick2[4,3]: - y[4,3] + r[4,3] <= 0
 mccormick3[0,2]: - y[0,2] - u[0,2] + r[0,2] >= -1
 mccormick3[0,3]: - y[0,3] - u[0,3] + r[0,3] >= -1
 mccormick3[0,4]: - y[0,4] - u[0,4] + r[0,4] >= -1
 mccormick3[1,2]: - y[1,2] - u[1,2] + r[1,2] >= -1
 mccormick3[1,3]: - y[1,3] - u[1,3] + r[1,3] >= -1
 mccormick3[2,0]: - y[2,0] - u[2,0] + r[2,0] >= -1
 mccormick3[2,1]: - y[2,1] - u[2,1] + r[2,1] >= -1
 mccormick3[2,3]: - y[2,3] - u[2,3] + r[2,3] >= -1
 mccormick3[2,4]: - y[2,4] - u[2,4] + r[2,4] >= -1
 mccormick3[3,0]: - y[3,0] - u[3,0] + r[3,0] >= -1
 mccormick3[3,1]: - y[3,1] - u[3,1] + r[3,1] >= -1
 mccormick3[3,2]: - y[3,2] - u[3,2] + r[3,2] >= -1
 mccormick3[3,4]: - y[3,4] - u[3,4] + r[3,4] >= -1
 mccormick3[4,0]: - y[4,0] - u[4,0] + r[4,0] >= -1
 mccormick3[4,2]: - y[4,2] - u[4,2] + r[4,2] >= -1
 mccormick3[4,3]: - y[4,3] - u[4,3] + r[4,3] >= -1
Bounds
Binaries
 y[0,2] y[0,3] y[0,4] y[1,2] y[1,3] y[2,0] y[2,1] y[2,3] y[2,4] y[3,0]
 y[3,1] y[3,2] y[3,4] y[4,0] y[4,2] y[4,3] u[0,2] u[0,3] u[0,4] u[1,2]
 u[1,3] u[2,0] u[2,1] u[2,3] u[2,4] u[3,0] u[3,1] u[3,2] u[3,4] u[4,0]
 u[4,2] u[4,3] r[0,2] r[0,3] r[0,4] r[1,2] r[1,3] r[2,0] r[2,1] r[2,3]
 r[2,4] r[3,0] r[3,1] r[3,2] r[3,4] r[4,0] r[4,2] r[4,3]
End
